p cnf 144 144
1 0
2 0
3 0
4 0
5 0
6 0
7 0
8 0
9 0
10 0
11 0
12 0
13 0
14 0
15 0
16 0
17 0
18 0
19 0
20 0
21 0
22 0
23 0
24 0
25 0
26 0
27 0
28 0
29 0
30 0
31 0
32 0
33 0
34 0
35 0
36 0
37 0
38 0
39 0
40 0
41 0
42 0
43 0
44 0
45 0
46 0
47 0
48 0
49 0
50 0
51 0
52 0
53 0
54 0
55 0
56 0
57 0
58 0
59 0
60 0
61 0
62 0
63 0
64 0
65 0
66 0
67 0
68 0
69 0
70 0
71 0
72 0
73 0
74 0
75 0
76 0
77 0
78 0
79 0
80 0
81 0
82 0
83 0
84 0
85 0
86 0
87 0
88 0
89 0
90 0
91 0
92 0
93 0
94 0
95 0
96 0
97 0
98 0
99 0
100 0
101 0
102 0
103 0
104 0
105 0
106 0
107 0
108 0
109 0
110 0
111 0
112 0
113 0
114 0
115 0
116 0
117 0
118 0
119 0
120 0
121 0
122 0
123 0
124 0
125 0
126 0
127 0
128 0
129 0
130 0
131 0
132 0
133 0
134 0
135 0
136 0
137 0
138 0
139 0
140 0
141 0
142 0
143 0
144 0
c 1 pbeq
c 2 pbeq
c 3 pbeq
c 4 pbeq
c 5 pbeq
c 6 pbeq
c 7 pbeq
c 8 pbeq
c 9 pbeq
c 10 pbeq
c 11 pbeq
c 12 pbeq
c 13 pbeq
c 14 pbeq
c 15 pbeq
c 16 pbeq
c 17 pbeq
c 18 pbeq
c 19 pbeq
c 20 pbeq
c 21 pbeq
c 22 pbeq
c 23 pbeq
c 24 pbeq
c 25 pbeq
c 26 pbeq
c 27 pbeq
c 28 pbeq
c 29 pbeq
c 30 pbeq
c 31 pbeq
c 32 pbeq
c 33 pbeq
c 34 pbeq
c 35 pbeq
c 36 pbeq
c 37 pbeq
c 38 pbeq
c 39 pbeq
c 40 pbeq
c 41 pbeq
c 42 pbeq
c 43 pbeq
c 44 pbeq
c 45 pbeq
c 46 pbeq
c 47 pbeq
c 48 pbeq
c 49 pbeq
c 50 pbeq
c 51 pbeq
c 52 pbeq
c 53 pbeq
c 54 pbeq
c 55 pbeq
c 56 pbeq
c 57 pbeq
c 58 pbeq
c 59 pbeq
c 60 pbeq
c 61 pbeq
c 62 pbeq
c 63 pbeq
c 64 pbeq
c 65 pbeq
c 66 pbeq
c 67 pbeq
c 68 pbeq
c 69 pbeq
c 70 pbeq
c 71 pbeq
c 72 pbeq
c 73 pbeq
c 74 pbeq
c 75 pbeq
c 76 pbeq
c 77 pbeq
c 78 pbeq
c 79 pbeq
c 80 pbeq
c 81 pbeq
c 82 pbeq
c 83 pbeq
c 84 pbeq
c 85 pbeq
c 86 pbeq
c 87 pbeq
c 88 pbeq
c 89 pbeq
c 90 pbeq
c 91 pbeq
c 92 pbeq
c 93 pbeq
c 94 pbeq
c 95 pbeq
c 96 pbeq
c 97 pbeq
c 98 pbeq
c 99 pbeq
c 100 pbeq
c 101 pbeq
c 102 pbeq
c 103 pbeq
c 104 pbeq
c 105 pbeq
c 106 pbeq
c 107 pbeq
c 108 pbeq
c 109 pbeq
c 110 pbeq
c 111 pbeq
c 112 pbeq
c 113 at-most
c 114 at-most
c 115 at-most
c 116 at-most
c 117 at-most
c 118 at-most
c 119 at-most
c 120 at-most
c 121 at-most
c 122 at-most
c 123 at-most
c 124 at-most
c 125 at-most
c 126 at-most
c 127 at-most
c 128 at-most
c 129 at-most
c 130 at-most
c 131 at-most
c 132 at-most
c 133 at-most
c 134 at-most
c 135 at-most
c 136 at-most
c 137 at-most
c 138 at-most
c 139 at-most
c 140 at-most
c 141 at-most
c 142 at-most
c 143 at-most
c 144 at-most
